c generated by sgen
c see http://www.cs.qub.ac.uk/~i.spence/sgen
p cnf 93 196
-2 -3 -4 0
-1 -3 -4 0
-1 -2 -4 0
-1 -2 -3 0
-6 -7 -8 0
-5 -7 -8 0
-5 -6 -8 0
-5 -6 -7 0
-10 -11 -12 0
-9 -11 -12 0
-9 -10 -12 0
-9 -10 -11 0
-14 -15 -16 0
-13 -15 -16 0
-13 -14 -16 0
-13 -14 -15 0
-18 -19 -20 0
-17 -19 -20 0
-17 -18 -20 0
-17 -18 -19 0
-22 -23 -24 0
-21 -23 -24 0
-21 -22 -24 0
-21 -22 -23 0
-26 -27 -28 0
-25 -27 -28 0
-25 -26 -28 0
-25 -26 -27 0
-30 -31 -32 0
-29 -31 -32 0
-29 -30 -32 0
-29 -30 -31 0
-34 -35 -36 0
-33 -35 -36 0
-33 -34 -36 0
-33 -34 -35 0
-38 -39 -40 0
-37 -39 -40 0
-37 -38 -40 0
-37 -38 -39 0
-42 -43 -44 0
-41 -43 -44 0
-41 -42 -44 0
-41 -42 -43 0
-46 -47 -48 0
-45 -47 -48 0
-45 -46 -48 0
-45 -46 -47 0
-50 -51 -52 0
-49 -51 -52 0
-49 -50 -52 0
-49 -50 -51 0
-54 -55 -56 0
-53 -55 -56 0
-53 -54 -56 0
-53 -54 -55 0
-58 -59 -60 0
-57 -59 -60 0
-57 -58 -60 0
-57 -58 -59 0
-62 -63 -64 0
-61 -63 -64 0
-61 -62 -64 0
-61 -62 -63 0
-66 -67 -68 0
-65 -67 -68 0
-65 -66 -68 0
-65 -66 -67 0
-70 -71 -72 0
-69 -71 -72 0
-69 -70 -72 0
-69 -70 -71 0
-74 -75 -76 0
-73 -75 -76 0
-73 -74 -76 0
-73 -74 -75 0
-78 -79 -80 0
-77 -79 -80 0
-77 -78 -80 0
-77 -78 -79 0
-82 -83 -84 0
-81 -83 -84 0
-81 -82 -84 0
-81 -82 -83 0
-86 -87 -88 0
-85 -87 -88 0
-85 -86 -88 0
-85 -86 -87 0
-89 -90 -91 0
-89 -90 -92 0
-89 -90 -93 0
-89 -91 -92 0
-89 -91 -93 0
-89 -92 -93 0
-90 -91 -92 0
-90 -91 -93 0
-90 -92 -93 0
-91 -92 -93 0
32 64 88 0
46 64 88 0
46 32 88 0
46 32 64 0
52 17 8 0
65 17 8 0
65 52 8 0
65 52 17 0
19 39 57 0
83 39 57 0
83 19 57 0
83 19 39 0
22 53 11 0
50 53 11 0
50 22 11 0
50 22 53 0
27 71 89 0
51 71 89 0
51 27 89 0
51 27 71 0
76 90 9 0
14 90 9 0
14 76 9 0
14 76 90 0
38 44 4 0
93 44 4 0
93 38 4 0
93 38 44 0
10 61 35 0
25 61 35 0
25 10 35 0
25 10 61 0
42 31 18 0
21 31 18 0
21 42 18 0
21 42 31 0
92 80 86 0
66 80 86 0
66 92 86 0
66 92 80 0
29 36 40 0
55 36 40 0
55 29 40 0
55 29 36 0
81 13 5 0
72 13 5 0
72 81 5 0
72 81 13 0
3 79 60 0
16 79 60 0
16 3 60 0
16 3 79 0
1 84 30 0
68 84 30 0
68 1 30 0
68 1 84 0
73 43 70 0
47 43 70 0
47 73 70 0
47 73 43 0
33 49 15 0
75 49 15 0
75 33 15 0
75 33 49 0
28 24 77 0
45 24 77 0
45 28 77 0
45 28 24 0
91 34 48 0
20 34 48 0
20 91 48 0
20 91 34 0
26 58 74 0
54 58 74 0
54 26 74 0
54 26 58 0
7 59 41 0
87 59 41 0
87 7 41 0
87 7 59 0
82 62 78 0
56 62 78 0
56 82 78 0
56 82 62 0
69 85 2 0
12 85 2 0
12 69 2 0
12 69 85 0
23 6 37 0
23 6 67 0
23 6 63 0
23 37 67 0
23 37 63 0
23 67 63 0
6 37 67 0
6 37 63 0
6 67 63 0
37 67 63 0
